c description: Random 3-CNF over 19 variables and 81 clauses
c generator: CNFgen (0.9.2)
c copyright: (C) 2012-2022 Massimo Lauria <massimo.lauria@uniroma1.it>
c url: https://massimolauria.net/cnfgen
c command line: cnfgen --output CNF_4.28/19_bit_81_277.cnf randkcnf 3 19 81
c
p cnf 19 81
17 18 19 0
-1 4 -9 0
10 11 -16 0
-5 -7 -17 0
-2 7 19 0
-9 12 -17 0
-6 -17 18 0
1 -9 -17 0
3 11 18 0
-1 -9 -16 0
5 -9 13 0
9 16 -18 0
-1 -5 -16 0
6 -12 16 0
-3 -9 -13 0
-3 -10 14 0
8 -9 -19 0
-7 -14 17 0
-2 14 18 0
-4 9 -19 0
13 14 -17 0
1 5 15 0
-1 6 12 0
1 -12 17 0
2 10 19 0
1 -8 14 0
-9 11 17 0
1 -15 -16 0
6 -11 -14 0
-5 15 -19 0
-2 -5 -7 0
-5 -9 14 0
6 11 19 0
3 9 11 0
6 7 -16 0
-7 8 15 0
1 -9 -10 0
-11 -12 14 0
-11 13 18 0
-2 -4 19 0
11 -15 -17 0
-3 -7 -8 0
-2 -7 8 0
7 15 18 0
-2 8 -9 0
11 17 18 0
-5 8 -12 0
-2 5 -8 0
-4 6 7 0
-13 14 18 0
4 -5 -16 0
-11 -16 18 0
11 -12 -17 0
1 -14 15 0
-1 17 19 0
5 7 16 0
4 -11 -16 0
5 12 -14 0
1 4 18 0
-1 7 10 0
3 -7 -16 0
-4 -5 -13 0
-10 -15 19 0
2 -7 13 0
11 -14 -19 0
8 17 -18 0
5 -13 -14 0
-4 7 9 0
-1 -8 -18 0
10 -16 18 0
-3 14 19 0
-3 -5 15 0
1 -3 17 0
-6 9 11 0
-2 -9 10 0
-4 15 -16 0
-12 -13 -14 0
8 12 -17 0
-4 9 -10 0
-4 -13 -15 0
-1 2 -4 0
